 SYSTEM = O atom in a box
 ISMEAR = 0  ! Gaussian smearing
 ISTART = 1 ! Used to restart if WAVECAR exists