H2O _2                                  
  0.529180000000000     
    12.0000000000000000    0.0000000000000000    0.0000000000000000
     0.0000000000000000   12.0000000000000000    0.0000000000000000
     0.0000000000000000    0.0000000000000000   12.0000000000000000
   O    H 
     1     2
Selective dynamics
Direct
  0.0456807269236519  0.1498859997246688  0.0000000000000000   T   T   F
  0.8987897879649204  0.1010709155340457  0.0000000000000000   T   T   F
  0.1106454011828870  0.0171629135424278  0.0000000000000000   T   T   F
 
 -0.47217332E-03  0.15143833E-01  0.00000000E+00
 -0.12942356E-01 -0.49185615E-01  0.00000000E+00
  0.57787179E-01 -0.31309443E-01  0.00000000E+00
 
           1
   1.00000000000000     
  0.10000000E+01  0.00000000E+00  0.00000000E+00  0.00000000E+00
  0.45606371E-01  0.15227080E+00  0.00000000E+00
  0.89675167E+00  0.93325345E-01  0.00000000E+00
  0.11974552E+00  0.12232417E-01  0.00000000E+00
 -0.45808424E-06  0.23362230E-02  0.00000000E+00
 -0.21220880E-02 -0.82269553E-02  0.00000000E+00
  0.79981238E-02 -0.36720349E-02  0.00000000E+00
  0.00000000E+00  0.00000000E+00  0.00000000E+00
  0.00000000E+00  0.00000000E+00  0.00000000E+00
  0.00000000E+00  0.00000000E+00  0.00000000E+00
