O atom in a box                         
   1.00000000000000     
     8.0000000000000000    0.0000000000000000    0.0000000000000000
     0.0000000000000000    8.0000000000000000    0.0000000000000000
     0.0000000000000000    0.0000000000000000    8.0000000000000000
   O    C 
     1     1
Direct
  0.0000000000000000  0.0000000000000000 -0.0016334869965448
  0.0000000000000000  0.0000000000000000  0.1416334869965453
 
  0.00000000E+00  0.00000000E+00  0.00000000E+00
  0.00000000E+00  0.00000000E+00  0.00000000E+00
